n = 32;
rows = 78;
supports = [|
  {1},2..9,
 |{1},25..32,
 |{2},{1},
 |{2},3..10,
 |{2},26..32,
 |{3},1..2,
 |{3},4..11,
 |{3},27..32,
 |{4},1..3,
 |{4},5..12,
 |{4},28..32,
 |{5},1..4,
 |{5},6..13,
 |{5},29..32,
 |{6},1..5,
 |{6},7..14,
 |{6},30..32,
 |{7},1..6,
 |{7},8..15,
 |{7},31..32,
 |{8},1..7,
 |{8},9..16,
 |{8},{32},
 |{9},1..8,
 |{9},10..17,
 |{10},2..9,
 |{10},11..18,
 |{11},3..10,
 |{11},12..19,
 |{12},4..11,
 |{12},13..20,
 |{13},5..12,
 |{13},14..21,
 |{14},6..13,
 |{14},15..22,
 |{15},7..14,
 |{15},16..23,
 |{16},8..15,
 |{16},17..24,
 |{17},9..16,
 |{17},18..25,
 |{18},10..17,
 |{18},19..26,
 |{19},11..18,
 |{19},20..27,
 |{20},12..19,
 |{20},21..28,
 |{21},13..20,
 |{21},22..29,
 |{22},14..21,
 |{22},23..30,
 |{23},15..22,
 |{23},24..31,
 |{24},16..23,
 |{24},25..32,
 |{25},17..24,
 |{25},26..32,
 |{25},{1},
 |{26},18..25,
 |{26},27..32,
 |{26},1..2,
 |{27},19..26,
 |{27},28..32,
 |{27},1..3,
 |{28},20..27,
 |{28},29..32,
 |{28},1..4,
 |{29},21..28,
 |{29},30..32,
 |{29},1..5,
 |{30},22..29,
 |{30},31..32,
 |{30},1..6,
 |{31},23..30,
 |{31},{32},
 |{31},1..7,
 |{32},24..31,
 |{32},1..8 |];

t = 90;

indexes = [|
    0,6,
  | 0,13,
  | 0,15,
  | 1,8,
  | 1,21,
  | 1,22,
  | 1,26,
  | 1,30,
  | 2,5,
  | 2,22,
  | 2,27,
  | 2,29,
  | 2,30,
  | 3,7,
  | 3,8,
  | 3,9,
  | 3,20,
  | 3,23,
  | 3,25,
  | 3,27,
  | 4,16,
  | 4,19,
  | 4,23,
  | 4,30,
  | 5,10,
  | 5,14,
  | 5,25,
  | 6,13,
  | 6,15,
  | 6,17,
  | 6,20,
  | 6,23,
  | 7,15,
  | 7,16,
  | 7,21,
  | 7,31,
  | 8,9,
  | 8,29,
  | 9,21,
  | 9,26,
  | 9,28,
  | 10,11,
  | 10,16,
  | 10,24,
  | 10,25,
  | 10,27,
  | 10,29,
  | 11,13,
  | 11,18,
  | 11,20,
  | 12,17,
  | 12,18,
  | 12,20,
  | 14,26,
  | 14,28,
  | 14,29,
  | 15,16,
  | 15,17,
  | 15,20,
  | 15,21,
  | 15,22,
  | 15,23,
  | 15,25,
  | 15,26,
  | 16,31,
  | 17,18,
  | 17,21,
  | 17,22,
  | 17,25,
  | 17,26,
  | 17,27,
  | 18,24,
  | 18,29,
  | 18,30,
  | 18,31,
  | 19,20,
  | 19,25,
  | 20,25,
  | 20,27,
  | 20,31,
  | 21,28,
  | 22,28,
  | 22,29,
  | 23,25,
  | 23,27,
  | 24,28,
  | 26,31,
  | 27,29,
  | 27,31,
  | 30,31 |];

